40
    77     9    44    50    48    26    13    92    31    13    56    81    44    75    42    85    33    68    21    74    74     3    17    23    70    41    37     9    50    99    61    11    75    46    50    14    32     5    45     3
    10     1     2     3     5     8     4     6     4     2     4     7     9     4     9     6     9     2     9     5     2    10     7     7     5     6     1     6     2     7    10     6     8     4    10     3     3     5     6     4
   591   869   702   434   766   972   820   735   547   426   436   623   989   657   358   824   935   380   850   873   440   989  1044   831   357   422   792   566   874   645   777   778   404   827   876   887   403   632   968   751
